TOUR_SECTION
1
3
181
131
95
189
110
20
91
4
47
201
144
88
146
64
5
142
14
148
38
45
57
175
169
50
109
40
121
174
119
35
126
122
105
32
69
84
42
107
154
185
68
197
81
44
134
120
156
6
70
195
77
53
61
194
96
54
87
165
145
129
199
37
184
86
7
133
149
41
193
100
192
10
158
102
140
15
150
103
51
75
52
71
83
16
152
62
139
159
39
66
183
173
78
82
147
24
19
80
76
141
113
127
180
187
135
115
63
168
153
124
190
172
30
128
166
130
92
25
188
93
22
179
125
49
27
72
79
200
178
191
117
176
99
8
60
21
101
28
116
163
67
23
106
43
162
85
31
13
196
136
182
114
73
12
155
171
58
151
26
29
97
161
157
104
74
90
2
94
177
98
186
108
111
170
164
143
89
46
167
198
11
137
55
112
123
160
59
33
48
132
9
56
138
34
18
36
65
17
118
-1
EOF